\ Model FlowOPT
\ LP format - for model browsing. Use MPS format to capture full model detail.
Maximize
  0.4574973798207168 z[0,1] + 0.5250166283105412 z[1,1]
   + 0.7349420451688968 z[2,1] + 0.8670071411648157 z[3,1]
   + 0.7905246418390954 z[4,1] + 0.47247302448218 z[5,1]
   + 0.7066845566114478 z[6,1] + 0.4308882248931678 z[7,1]
   + 0.5339663307422901 z[8,1] + 0.43698523401836 z[9,1]
   + 0.5046945185727 z[10,1] + 0.8334280313834634 z[11,1]
   + 0.6176538299428623 z[12,1] + 0.7125400476772199 z[13,1]
   + 3.34310518018789 z[14,1] + 0.0385283885986052 z[15,1]
   + 0.4641948548205823 z[16,1] + 4.3137834621198 z[17,1]
   + 1.061250282377218 z[18,1] + 0.4850702144936445 z[19,1]
   + 0.4412235454328901 z[21,1] + 0.2186174991377067 z[22,1]
   + 0.536117407217969 z[23,1] + 4.518544197753211 z[24,1]
   + 0.4116740859520977 z[25,1] + 0.8308652542548445 z[26,1]
   + 0.3956278457819444 z[27,1] + 0.5872008994175389 z[28,1]
   + 5.38575858124636 z[29,1] + 0.559925089716979 z[30,1]
   + 0.4427936346110667 z[31,1] + 0.1609945559372211 z[32,1]
   + 0.5613766828693512 z[33,1] + 0.1642181545342811 z[34,1]
   + 3.32027520028492 z[35,1] + 0.6258000206776166 z[36,1]
   + 0.6186892610181645 z[37,1] + 6.525335871233709 z[38,1]
   + 0.356894705825179 z[39,1] + 0.5455910938369156 z[40,1]
   + 0.7459902547830921 z[41,1] + 0.2978910212446778 z[42,1]
   + 0.8220222372254555 z[43,1] + 0.2466725260620855 z[44,1]
   + 0.3342438856743367 z[45,1] + 0.4815360881126956 z[46,1]
   + 0.6044726907069478 z[47,1] + 0.3996912945890556 z[48,1]
   + 0.46683007598516 z[49,1] + 0.5927149264519345 z[50,1]
   + 0.7019904065926891 z[51,1] + 0.7098595630159933 z[52,1]
   + 0.5870799297698167 z[53,1] + 0.5874230517785678 z[54,1]
   + 0.6839822722796478 z[55,1] + 0.1772285797891678 z[56,1] + 10 z[57,1]
   + 0.6350163190374388 z[58,1] + 0.7087996221182378 z[59,1]
   + 0.2812853768201789 z[60,1] + 4.52905125831118 z[61,1]
   + 4.44521895812454 z[62,1] + 6.04108838068829 z[63,1]
   + 0.5299760652384934 z[64,1] + 5.12031677638677 z[65,1]
   + 0.6737574299115456 z[66,1] + 0.65531609413648 z[67,1]
   + 0.8690015444049933 z[68,1] + 0.9476094088305201 z[69,1]
   + 0.6042390054534557 z[70,1] + 0.0188501752119538 z[71,1]
   + 0.5255602915278322 z[72,1] + 0.36729807639882 z[73,1]
   + 0.766425823307619 z[74,1] + 0.6156391956636611 z[75,1]
   + 0.3949400161788311 z[76,1] + 0.7399969145471089 z[77,1]
   + 0.9335489115438522 z[78,1] + 0.4981367710708755 z[79,1]
   + 6.181676262879821 z[80,1] + 0.32171996093645 z[81,1]
   + 0.5955094604400266 z[82,1] + 0.4698685731493834 z[83,1]
   + 0.4688226660944612 z[84,1] + 0.3932259906354445 z[85,1]
   + 0.1347734713788089 z[86,1] + 0.23911752063256 z[87,1]
   + 0.6592307916756623 z[88,1] + 4.03218599577686 z[89,1]
   + 0.4616915147844378 z[90,1] + 0.4067242277136 z[91,1]
   + 0.5242090248553478 z[92,1] + 0.5742930094672123 z[93,1]
   + 0.5358605942755167 z[94,1] + 0.3065610679782388 z[95,1]
   + 0.8294637668519278 z[96,1] + 0.6174301336453901 z[97,1]
   + 0.7771727224338122 z[98,1] + 0.4004687899101777 z[99,1]
Subject To
 R0: p[1] = 1
 R1: - w[1,1] + zeta[0,1] <= 0
 R2: - w[1,1] + zeta[1,1] <= 0
 R3: - w[1,0] + zeta[2,1] <= 0
 R4: - w[1,0] + zeta[3,1] <= 0
 R5: - w[1,0] + zeta[4,1] <= 0
 R6: - w[1,0] + zeta[5,1] <= 0
 R7: - w[1,0] + zeta[6,1] <= 0
 R8: - w[1,1] + zeta[7,1] <= 0
 R9: - w[1,1] + zeta[8,1] <= 0
 R10: - w[1,1] + zeta[9,1] <= 0
 R11: - w[1,0] + zeta[10,1] <= 0
 R12: - w[1,0] + zeta[11,1] <= 0
 R13: - w[1,0] + zeta[12,1] <= 0
 R14: - w[1,0] + zeta[13,1] <= 0
 R15: - w[1,0] + zeta[14,1] <= 0
 R16: - w[1,0] + zeta[15,1] <= 0
 R17: - w[1,0] + zeta[16,1] <= 0
 R18: - w[1,0] + zeta[17,1] <= 0
 R19: - w[1,0] + zeta[18,1] <= 0
 R20: - w[1,1] + zeta[19,1] <= 0
 R21: - w[1,1] + zeta[20,1] <= 0
 R22: - w[1,1] + zeta[21,1] <= 0
 R23: - w[1,1] + zeta[22,1] <= 0
 R24: - w[1,1] + zeta[23,1] <= 0
 R25: - w[1,0] + zeta[24,1] <= 0
 R26: - w[1,1] + zeta[25,1] <= 0
 R27: - w[1,0] + zeta[26,1] <= 0
 R28: - w[1,0] + zeta[27,1] <= 0
 R29: - w[1,1] + zeta[28,1] <= 0
 R30: - w[1,1] + zeta[29,1] <= 0
 R31: - w[1,0] + zeta[30,1] <= 0
 R32: - w[1,1] + zeta[31,1] <= 0
 R33: - w[1,0] + zeta[32,1] <= 0
 R34: - w[1,0] + zeta[33,1] <= 0
 R35: - w[1,0] + zeta[34,1] <= 0
 R36: - w[1,1] + zeta[35,1] <= 0
 R37: - w[1,0] + zeta[36,1] <= 0
 R38: - w[1,1] + zeta[37,1] <= 0
 R39: - w[1,0] + zeta[38,1] <= 0
 R40: - w[1,1] + zeta[39,1] <= 0
 R41: - w[1,1] + zeta[40,1] <= 0
 R42: - w[1,1] + zeta[41,1] <= 0
 R43: - w[1,1] + zeta[42,1] <= 0
 R44: - w[1,0] + zeta[43,1] <= 0
 R45: - w[1,0] + zeta[44,1] <= 0
 R46: - w[1,1] + zeta[45,1] <= 0
 R47: - w[1,1] + zeta[46,1] <= 0
 R48: - w[1,1] + zeta[47,1] <= 0
 R49: - w[1,0] + zeta[48,1] <= 0
 R50: - w[1,1] + zeta[49,1] <= 0
 R51: - w[1,0] + zeta[50,1] <= 0
 R52: - w[1,1] + zeta[51,1] <= 0
 R53: - w[1,1] + zeta[52,1] <= 0
 R54: - w[1,0] + zeta[53,1] <= 0
 R55: - w[1,1] + zeta[54,1] <= 0
 R56: - w[1,0] + zeta[55,1] <= 0
 R57: - w[1,1] + zeta[56,1] <= 0
 R58: - w[1,1] + zeta[57,1] <= 0
 R59: - w[1,0] + zeta[58,1] <= 0
 R60: - w[1,0] + zeta[59,1] <= 0
 R61: - w[1,0] + zeta[60,1] <= 0
 R62: - w[1,0] + zeta[61,1] <= 0
 R63: - w[1,0] + zeta[62,1] <= 0
 R64: - w[1,0] + zeta[63,1] <= 0
 R65: - w[1,1] + zeta[64,1] <= 0
 R66: - w[1,1] + zeta[65,1] <= 0
 R67: - w[1,0] + zeta[66,1] <= 0
 R68: - w[1,0] + zeta[67,1] <= 0
 R69: - w[1,0] + zeta[68,1] <= 0
 R70: - w[1,0] + zeta[69,1] <= 0
 R71: - w[1,1] + zeta[70,1] <= 0
 R72: - w[1,1] + zeta[71,1] <= 0
 R73: - w[1,0] + zeta[72,1] <= 0
 R74: - w[1,1] + zeta[73,1] <= 0
 R75: - w[1,1] + zeta[74,1] <= 0
 R76: - w[1,0] + zeta[75,1] <= 0
 R77: - w[1,1] + zeta[76,1] <= 0
 R78: - w[1,1] + zeta[77,1] <= 0
 R79: - w[1,0] + zeta[78,1] <= 0
 R80: - w[1,1] + zeta[79,1] <= 0
 R81: - w[1,1] + zeta[80,1] <= 0
 R82: - w[1,0] + zeta[81,1] <= 0
 R83: - w[1,1] + zeta[82,1] <= 0
 R84: - w[1,0] + zeta[83,1] <= 0
 R85: - w[1,1] + zeta[84,1] <= 0
 R86: - w[1,0] + zeta[85,1] <= 0
 R87: - w[1,0] + zeta[86,1] <= 0
 R88: - w[1,0] + zeta[87,1] <= 0
 R89: - w[1,1] + zeta[88,1] <= 0
 R90: - w[1,1] + zeta[89,1] <= 0
 R91: - w[1,0] + zeta[90,1] <= 0
 R92: - w[1,0] + zeta[91,1] <= 0
 R93: - w[1,0] + zeta[92,1] <= 0
 R94: - w[1,1] + zeta[93,1] <= 0
 R95: - w[1,0] + zeta[94,1] <= 0
 R96: - w[1,1] + zeta[95,1] <= 0
 R97: - w[1,0] + zeta[96,1] <= 0
 R98: - w[1,0] + zeta[97,1] <= 0
 R99: - w[1,1] + zeta[98,1] <= 0
 R100: - w[1,1] + zeta[99,1] <= 0
 R101: - p[1] + w[1,1] + w[1,0] = 0
 R102: zeta[0,1] - z[0,1] = 0
 R103: zeta[1,1] - z[1,1] = 0
 R104: zeta[2,1] - z[2,1] = 0
 R105: zeta[3,1] - z[3,1] = 0
 R106: zeta[4,1] - z[4,1] = 0
 R107: zeta[5,1] - z[5,1] = 0
 R108: zeta[6,1] - z[6,1] = 0
 R109: zeta[7,1] - z[7,1] = 0
 R110: zeta[8,1] - z[8,1] = 0
 R111: zeta[9,1] - z[9,1] = 0
 R112: zeta[10,1] - z[10,1] = 0
 R113: zeta[11,1] - z[11,1] = 0
 R114: zeta[12,1] - z[12,1] = 0
 R115: zeta[13,1] - z[13,1] = 0
 R116: zeta[14,1] - z[14,1] = 0
 R117: zeta[15,1] - z[15,1] = 0
 R118: zeta[16,1] - z[16,1] = 0
 R119: zeta[17,1] - z[17,1] = 0
 R120: zeta[18,1] - z[18,1] = 0
 R121: zeta[19,1] - z[19,1] = 0
 R122: zeta[20,1] - z[20,1] = 0
 R123: zeta[21,1] - z[21,1] = 0
 R124: zeta[22,1] - z[22,1] = 0
 R125: zeta[23,1] - z[23,1] = 0
 R126: zeta[24,1] - z[24,1] = 0
 R127: zeta[25,1] - z[25,1] = 0
 R128: zeta[26,1] - z[26,1] = 0
 R129: zeta[27,1] - z[27,1] = 0
 R130: zeta[28,1] - z[28,1] = 0
 R131: zeta[29,1] - z[29,1] = 0
 R132: zeta[30,1] - z[30,1] = 0
 R133: zeta[31,1] - z[31,1] = 0
 R134: zeta[32,1] - z[32,1] = 0
 R135: zeta[33,1] - z[33,1] = 0
 R136: zeta[34,1] - z[34,1] = 0
 R137: zeta[35,1] - z[35,1] = 0
 R138: zeta[36,1] - z[36,1] = 0
 R139: zeta[37,1] - z[37,1] = 0
 R140: zeta[38,1] - z[38,1] = 0
 R141: zeta[39,1] - z[39,1] = 0
 R142: zeta[40,1] - z[40,1] = 0
 R143: zeta[41,1] - z[41,1] = 0
 R144: zeta[42,1] - z[42,1] = 0
 R145: zeta[43,1] - z[43,1] = 0
 R146: zeta[44,1] - z[44,1] = 0
 R147: zeta[45,1] - z[45,1] = 0
 R148: zeta[46,1] - z[46,1] = 0
 R149: zeta[47,1] - z[47,1] = 0
 R150: zeta[48,1] - z[48,1] = 0
 R151: zeta[49,1] - z[49,1] = 0
 R152: zeta[50,1] - z[50,1] = 0
 R153: zeta[51,1] - z[51,1] = 0
 R154: zeta[52,1] - z[52,1] = 0
 R155: zeta[53,1] - z[53,1] = 0
 R156: zeta[54,1] - z[54,1] = 0
 R157: zeta[55,1] - z[55,1] = 0
 R158: zeta[56,1] - z[56,1] = 0
 R159: zeta[57,1] - z[57,1] = 0
 R160: zeta[58,1] - z[58,1] = 0
 R161: zeta[59,1] - z[59,1] = 0
 R162: zeta[60,1] - z[60,1] = 0
 R163: zeta[61,1] - z[61,1] = 0
 R164: zeta[62,1] - z[62,1] = 0
 R165: zeta[63,1] - z[63,1] = 0
 R166: zeta[64,1] - z[64,1] = 0
 R167: zeta[65,1] - z[65,1] = 0
 R168: zeta[66,1] - z[66,1] = 0
 R169: zeta[67,1] - z[67,1] = 0
 R170: zeta[68,1] - z[68,1] = 0
 R171: zeta[69,1] - z[69,1] = 0
 R172: zeta[70,1] - z[70,1] = 0
 R173: zeta[71,1] - z[71,1] = 0
 R174: zeta[72,1] - z[72,1] = 0
 R175: zeta[73,1] - z[73,1] = 0
 R176: zeta[74,1] - z[74,1] = 0
 R177: zeta[75,1] - z[75,1] = 0
 R178: zeta[76,1] - z[76,1] = 0
 R179: zeta[77,1] - z[77,1] = 0
 R180: zeta[78,1] - z[78,1] = 0
 R181: zeta[79,1] - z[79,1] = 0
 R182: zeta[80,1] - z[80,1] = 0
 R183: zeta[81,1] - z[81,1] = 0
 R184: zeta[82,1] - z[82,1] = 0
 R185: zeta[83,1] - z[83,1] = 0
 R186: zeta[84,1] - z[84,1] = 0
 R187: zeta[85,1] - z[85,1] = 0
 R188: zeta[86,1] - z[86,1] = 0
 R189: zeta[87,1] - z[87,1] = 0
 R190: zeta[88,1] - z[88,1] = 0
 R191: zeta[89,1] - z[89,1] = 0
 R192: zeta[90,1] - z[90,1] = 0
 R193: zeta[91,1] - z[91,1] = 0
 R194: zeta[92,1] - z[92,1] = 0
 R195: zeta[93,1] - z[93,1] = 0
 R196: zeta[94,1] - z[94,1] = 0
 R197: zeta[95,1] - z[95,1] = 0
 R198: zeta[96,1] - z[96,1] = 0
 R199: zeta[97,1] - z[97,1] = 0
 R200: zeta[98,1] - z[98,1] = 0
 R201: zeta[99,1] - z[99,1] = 0
Bounds
Binaries
 p[1]
End
